
%FILE DATA:	Soccer Computational Problem for MiniZinc Models	%
%AUTHOR:	Jack Wall	%
%CONTACT:  	116397063@umail.ucc.ie			%
%LAST UPDATE:	02/24/2020, 18:51:12						%
%DESCRIPTION: 	63 games played with 9 games left				%


n=9; %number of teams

%Games to play
games=[|3,7|4,3|4,5|6,2|5,9|3,2|2,7|5,6|3,8|];

%Initial points
iPoints=[27,16,12,19,21,17,21,20,22];

%POSITION CONSTRAINTS
% [|teamID, operator, position|...]
% operators index:
%  1 for =  operator
%  2 for >  operator
%  3 for >= operator
%  4 for <  operator
%  5 for <= operator
positionConstraints=[|5,5,1|1,2,1|8,5,3|9,1,4|7,2,4|6,2,5|];